presolving:
(round 1, fast)       20 del vars, 20 del conss, 0 add conss, 6908 chg bounds, 0 chg sides, 0 chg coeffs, 0 upgd conss, 0 impls, 1 clqs
(round 2, fast)       29 del vars, 20 del conss, 0 add conss, 6908 chg bounds, 0 chg sides, 0 chg coeffs, 0 upgd conss, 0 impls, 1 clqs
   (1.1s) running MILP presolver
   (1.5s) MILP presolver (3 rounds): 0 aggregations, 650 fixings, 0 bound changes
(round 3, medium)     679 del vars, 3043 del conss, 1073 add conss, 6908 chg bounds, 0 chg sides, 0 chg coeffs, 0 upgd conss, 0 impls, 0 clqs
(round 4, exhaustive) 679 del vars, 3043 del conss, 1073 add conss, 6908 chg bounds, 0 chg sides, 0 chg coeffs, 6 upgd conss, 0 impls, 0 clqs
(round 5, fast)       700 del vars, 3049 del conss, 1073 add conss, 6908 chg bounds, 0 chg sides, 0 chg coeffs, 6 upgd conss, 0 impls, 0 clqs
   (1.5s) probing: 51/209 (24.4%) - 0 fixings, 0 aggregations, 0 implications, 0 bound changes
   (1.5s) probing aborted: 50/50 successive totally useless probings
   (1.5s) symmetry computation started: requiring (bin +, int -, cont +), (fixed: bin -, int +, cont -)
   (1.5s) no symmetry present
presolving (6 rounds: 6 fast, 3 medium, 2 exhaustive):
 700 deleted vars, 3049 deleted constraints, 1073 added constraints, 6908 tightened bounds, 0 added holes, 0 changed sides, 0 changed coefficients
 0 implications, 0 cliques
presolved problem has 7106 variables (209 bin, 0 int, 0 impl, 6897 cont) and 1067 constraints
   1067 constraints of type <linear>
Presolving Time: 1.27

 time | node  | left  |LP iter|LP it/n|mem/heur|mdpt |vars |cons |rows |cuts |sepa|confs|strbr|  dualbound   | primalbound  |  gap   | compl. 
p 1.6s|     1 |     0 |   218 |     - |   locks|   0 |7106 |1067 |1067 |   0 |  0 |   0 |   0 | 1.910000e+02 | 7.008973e+05 |  Large | unknown
i 1.6s|     1 |     0 |   218 |     - |  oneopt|   0 |7106 |1067 |1067 |   0 |  0 |   0 |   0 | 1.910000e+02 | 2.434753e+05 |  Large | unknown
  1.6s|     1 |     0 |   780 |     - |   258M |   0 |7106 |1067 |1067 |   0 |  0 |   0 |   0 | 1.230814e+05 | 2.434753e+05 |  97.82%| unknown
r 1.6s|     1 |     0 |   780 |     - |simplero|   0 |7106 |1067 |1067 |   0 |  0 |   0 |   0 | 1.230814e+05 | 2.157364e+05 |  75.28%| unknown
  1.7s|     1 |     0 |  1035 |     - |   261M |   0 |7106 |1067 |1099 |  32 |  1 |   0 |   0 | 1.455363e+05 | 2.157364e+05 |  48.24%| unknown
  1.7s|     1 |     0 |  1306 |     - |   261M |   0 |7106 |1067 |1122 |  55 |  2 |   0 |   0 | 1.603168e+05 | 2.157364e+05 |  34.57%| unknown
  1.8s|     1 |     0 |  1392 |     - |   263M |   0 |7106 |1067 |1134 |  67 |  3 |   0 |   0 | 1.649055e+05 | 2.157364e+05 |  30.82%| unknown
  1.8s|     1 |     0 |  1440 |     - |   263M |   0 |7106 |1067 |1142 |  75 |  4 |   0 |   0 | 1.666192e+05 | 2.157364e+05 |  29.48%| unknown
  1.9s|     1 |     0 |  1596 |     - |   263M |   0 |7106 |1067 |1167 | 100 |  5 |   0 |   0 | 1.691987e+05 | 2.157364e+05 |  27.50%| unknown
  2.1s|     1 |     0 |  1801 |     - |   264M |   0 |7106 |1067 |1192 | 125 |  6 |   0 |   0 | 1.730232e+05 | 2.157364e+05 |  24.69%| unknown
  2.2s|     1 |     0 |  1908 |     - |   264M |   0 |7106 |1067 |1204 | 137 |  7 |   0 |   0 | 1.740473e+05 | 2.157364e+05 |  23.95%| unknown
  2.3s|     1 |     0 |  2062 |     - |   264M |   0 |7106 |1067 |1217 | 150 |  8 |   0 |   0 | 1.751982e+05 | 2.157364e+05 |  23.14%| unknown
  2.4s|     1 |     0 |  2179 |     - |   264M |   0 |7106 |1067 |1235 | 168 |  9 |   0 |   0 | 1.766208e+05 | 2.157364e+05 |  22.15%| unknown
  2.5s|     1 |     0 |  2371 |     - |   265M |   0 |7106 |1067 |1250 | 183 | 10 |   0 |   0 | 1.771306e+05 | 2.157364e+05 |  21.80%| unknown
  2.6s|     1 |     0 |  2540 |     - |   265M |   0 |7106 |1067 |1261 | 194 | 11 |   0 |   0 | 1.776618e+05 | 2.157364e+05 |  21.43%| unknown
 time | node  | left  |LP iter|LP it/n|mem/heur|mdpt |vars |cons |rows |cuts |sepa|confs|strbr|  dualbound   | primalbound  |  gap   | compl. 
  2.8s|     1 |     0 |  2876 |     - |   265M |   0 |7106 |1067 |1282 | 215 | 12 |   0 |   0 | 1.783467e+05 | 2.157364e+05 |  20.96%| unknown
  2.9s|     1 |     0 |  3043 |     - |   266M |   0 |7106 |1067 |1297 | 230 | 13 |   0 |   0 | 1.787488e+05 | 2.157364e+05 |  20.69%| unknown
  3.1s|     1 |     0 |  3333 |     - |   267M |   0 |7106 |1067 |1314 | 247 | 14 |   0 |   0 | 1.791486e+05 | 2.157364e+05 |  20.42%| unknown
  3.2s|     1 |     0 |  3458 |     - |   267M |   0 |7106 |1067 |1321 | 254 | 15 |   0 |   0 | 1.793272e+05 | 2.157364e+05 |  20.30%| unknown
  3.4s|     1 |     0 |  3776 |     - |   267M |   0 |7106 |1067 |1329 | 277 | 16 |   0 |   0 | 1.797154e+05 | 2.157364e+05 |  20.04%| unknown
  3.5s|     1 |     0 |  3969 |     - |   268M |   0 |7106 |1067 |1343 | 291 | 17 |   0 |   0 | 1.799048e+05 | 2.157364e+05 |  19.92%| unknown
  3.7s|     1 |     0 |  4078 |     - |   269M |   0 |7106 |1067 |1345 | 293 | 18 |   0 |   0 | 1.799545e+05 | 2.157364e+05 |  19.88%| unknown
  3.8s|     1 |     0 |  4142 |     - |   269M |   0 |7106 |1067 |1356 | 304 | 19 |   0 |   0 | 1.800186e+05 | 2.157364e+05 |  19.84%| unknown
  3.9s|     1 |     0 |  4323 |     - |   269M |   0 |7106 |1067 |1368 | 316 | 20 |   0 |   0 | 1.800990e+05 | 2.157364e+05 |  19.79%| unknown
  4.0s|     1 |     0 |  4398 |     - |   269M |   0 |7106 |1067 |1373 | 321 | 21 |   0 |   0 | 1.801247e+05 | 2.157364e+05 |  19.77%| unknown
  4.2s|     1 |     0 |  4568 |     - |   269M |   0 |7106 |1067 |1357 | 336 | 22 |   0 |   0 | 1.801837e+05 | 2.157364e+05 |  19.73%| unknown
  4.3s|     1 |     0 |  4682 |     - |   269M |   0 |7106 |1067 |1364 | 343 | 23 |   0 |   0 | 1.802182e+05 | 2.157364e+05 |  19.71%| unknown
  4.4s|     1 |     0 |  4853 |     - |   269M |   0 |7106 |1067 |1376 | 355 | 24 |   0 |   0 | 1.802846e+05 | 2.157364e+05 |  19.66%| unknown
  4.6s|     1 |     0 |  5022 |     - |   269M |   0 |7106 |1067 |1391 | 370 | 25 |   0 |   0 | 1.803078e+05 | 2.157364e+05 |  19.65%| unknown
  4.7s|     1 |     0 |  5232 |     - |   269M |   0 |7106 |1067 |1406 | 385 | 26 |   0 |   0 | 1.803618e+05 | 2.157364e+05 |  19.61%| unknown
 time | node  | left  |LP iter|LP it/n|mem/heur|mdpt |vars |cons |rows |cuts |sepa|confs|strbr|  dualbound   | primalbound  |  gap   | compl. 
  4.8s|     1 |     0 |  5340 |     - |   269M |   0 |7106 |1067 |1412 | 391 | 27 |   0 |   0 | 1.803848e+05 | 2.157364e+05 |  19.60%| unknown
  5.0s|     1 |     0 |  5507 |     - |   270M |   0 |7106 |1067 |1385 | 405 | 28 |   0 |   0 | 1.804301e+05 | 2.157364e+05 |  19.57%| unknown
  5.2s|     1 |     0 |  5676 |     - |   271M |   0 |7106 |1067 |1394 | 414 | 29 |   0 |   0 | 1.804699e+05 | 2.157364e+05 |  19.54%| unknown
  5.3s|     1 |     0 |  5732 |     - |   271M |   0 |7106 |1067 |1398 | 418 | 30 |   0 |   0 | 1.804808e+05 | 2.157364e+05 |  19.53%| unknown
  5.4s|     1 |     0 |  5765 |     - |   271M |   0 |7106 |1067 |1401 | 421 | 31 |   0 |   0 | 1.804878e+05 | 2.157364e+05 |  19.53%| unknown
  5.5s|     1 |     0 |  5867 |     - |   271M |   0 |7106 |1067 |1405 | 425 | 32 |   0 |   0 | 1.805002e+05 | 2.157364e+05 |  19.52%| unknown
  5.7s|     1 |     0 |  6021 |     - |   271M |   0 |7106 |1067 |1414 | 434 | 33 |   0 |   0 | 1.805514e+05 | 2.157364e+05 |  19.49%| unknown
  5.9s|     1 |     0 |  6218 |     - |   271M |   0 |7106 |1067 |1387 | 447 | 34 |   0 |   0 | 1.805920e+05 | 2.157364e+05 |  19.46%| unknown
  6.0s|     1 |     0 |  6310 |     - |   271M |   0 |7106 |1067 |1396 | 456 | 35 |   0 |   0 | 1.806025e+05 | 2.157364e+05 |  19.45%| unknown
  6.1s|     1 |     0 |  6496 |     - |   271M |   0 |7106 |1067 |1408 | 468 | 36 |   0 |   0 | 1.806338e+05 | 2.157364e+05 |  19.43%| unknown
  6.3s|     1 |     0 |  6656 |     - |   271M |   0 |7106 |1067 |1416 | 476 | 37 |   0 |   0 | 1.806493e+05 | 2.157364e+05 |  19.42%| unknown
  6.4s|     1 |     0 |  6749 |     - |   272M |   0 |7106 |1067 |1425 | 485 | 38 |   0 |   0 | 1.806610e+05 | 2.157364e+05 |  19.41%| unknown
  6.6s|     1 |     0 |  6890 |     - |   272M |   0 |7106 |1067 |1438 | 498 | 39 |   0 |   0 | 1.806801e+05 | 2.157364e+05 |  19.40%| unknown
  6.7s|     1 |     0 |  6972 |     - |   272M |   0 |7106 |1067 |1399 | 509 | 40 |   0 |   0 | 1.806897e+05 | 2.157364e+05 |  19.40%| unknown
  6.8s|     1 |     0 |  7097 |     - |   272M |   0 |7106 |1067 |1408 | 518 | 41 |   0 |   0 | 1.807032e+05 | 2.157364e+05 |  19.39%| unknown
 time | node  | left  |LP iter|LP it/n|mem/heur|mdpt |vars |cons |rows |cuts |sepa|confs|strbr|  dualbound   | primalbound  |  gap   | compl. 
  6.9s|     1 |     0 |  7220 |     - |   273M |   0 |7106 |1067 |1415 | 525 | 42 |   0 |   0 | 1.807096e+05 | 2.157364e+05 |  19.38%| unknown
  7.0s|     1 |     0 |  7299 |     - |   273M |   0 |7106 |1067 |1421 | 531 | 43 |   0 |   0 | 1.807188e+05 | 2.157364e+05 |  19.38%| unknown
  7.2s|     1 |     0 |  7471 |     - |   273M |   0 |7106 |1067 |1426 | 536 | 44 |   0 |   0 | 1.807301e+05 | 2.157364e+05 |  19.37%| unknown
  7.3s|     1 |     0 |  7615 |     - |   273M |   0 |7106 |1067 |1432 | 542 | 45 |   0 |   0 | 1.807362e+05 | 2.157364e+05 |  19.37%| unknown
  7.5s|     1 |     0 |  7706 |     - |   273M |   0 |7106 |1067 |1411 | 556 | 46 |   0 |   0 | 1.807498e+05 | 2.157364e+05 |  19.36%| unknown
  7.6s|     1 |     0 |  7802 |     - |   273M |   0 |7106 |1067 |1417 | 562 | 47 |   0 |   0 | 1.807594e+05 | 2.157364e+05 |  19.35%| unknown
  7.7s|     1 |     0 |  7842 |     - |   273M |   0 |7106 |1067 |1421 | 566 | 48 |   0 |   0 | 1.807618e+05 | 2.157364e+05 |  19.35%| unknown
  7.8s|     1 |     0 |  7912 |     - |   273M |   0 |7106 |1067 |1426 | 571 | 49 |   0 |   0 | 1.807651e+05 | 2.157364e+05 |  19.35%| unknown
  7.9s|     1 |     0 |  8037 |     - |   273M |   0 |7106 |1067 |1435 | 580 | 50 |   0 |   0 | 1.807742e+05 | 2.157364e+05 |  19.34%| unknown
r 8.4s|     1 |     0 | 10119 |     - |intshift|   0 |7106 |1067 |1435 | 580 | 50 |   0 |   0 | 1.807742e+05 | 2.095505e+05 |  15.92%| unknown
L11.4s|     1 |     0 | 19917 |     - |    alns|   0 |7106 |1067 |1435 | 580 | 50 |   0 |   0 | 1.807742e+05 | 2.081031e+05 |  15.12%| unknown
L11.4s|     1 |     0 | 19917 |     - |    alns|   0 |7106 |1067 |1435 | 580 | 50 |   0 |   0 | 1.807742e+05 | 2.064256e+05 |  14.19%| unknown
L11.4s|     1 |     0 | 19917 |     - |    alns|   0 |7106 |1067 |1435 | 580 | 50 |   0 |   0 | 1.807742e+05 | 2.052535e+05 |  13.54%| unknown
 11.4s|     1 |     0 | 19917 |     - |   280M |   0 |7106 |1067 |1435 | 580 | 50 |   0 |   0 | 1.807742e+05 | 2.052535e+05 |  13.54%| unknown
i11.9s|     1 |     0 | 21785 |     - |  oneopt|   0 |7106 |1067 |1435 | 580 | 50 |   0 |   0 | 1.807742e+05 | 1.884914e+05 |   4.27%| unknown
 time | node  | left  |LP iter|LP it/n|mem/heur|mdpt |vars |cons |rows |cuts |sepa|confs|strbr|  dualbound   | primalbound  |  gap   | compl. 
 12.0s|     1 |     0 | 21860 |     - |   280M |   0 |7106 |1067 |1444 | 589 | 51 |   0 |   0 | 1.807809e+05 | 1.884914e+05 |   4.27%| unknown
 12.1s|     1 |     0 | 21924 |     - |   280M |   0 |7106 |1067 |1448 | 593 | 52 |   0 |   0 | 1.807866e+05 | 1.884914e+05 |   4.26%| unknown
 16.1s|     1 |     2 | 21924 |     - |   280M |   0 |7106 |1067 |1448 | 593 | 52 |   0 |  19 | 1.809048e+05 | 1.884914e+05 |   4.19%| unknown
r44.8s|    27 |    15 | 33067 | 893.9 |simplero|  17 |7106 |1068 |1323 | 677 |  0 |  11 | 242 | 1.810197e+05 | 1.840144e+05 |   1.65%|  14.24%
*45.1s|    30 |    17 | 34460 | 849.4 |    LP  |  20 |7106 |1067 |1351 | 705 |  3 |  11 | 242 | 1.810197e+05 | 1.824769e+05 |   0.80%|  16.53%
*45.1s|    33 |    10 | 34556 | 772.8 |    LP  |  20 |7106 |1067 |1324 | 705 |  1 |  11 | 242 | 1.810197e+05 | 1.811577e+05 |   0.08%|  36.90%

SCIP Status        : problem is solved [optimal solution found]
Solving Time (sec) : 45.18
Solving Nodes      : 43
Primal Bound       : +1.81157682995218e+05 (218 solutions)
Dual Bound         : +1.81157682995218e+05
Gap                : 0.00 %
Solve Status: optimal
Solve Time: 45.19 seconds
